AME : levi30_6
COMMENT : 30: 30x24 -city problem (levikoppenhol)
TYPE : TSP
DIMENSION : 30
EDGE_WEIGHT_TYPE : EUC_2D
NODE_COORD_SECTION
1 11 10
2 16 13
3 10 26
4 9 26
5 20 16
6 14 2
7 6 15
8 22 12
9 1 21
10 0 3
11 0 12
12 20 10
13 6 12
14 23 18
15 16 24
16 11 14
17 8 19
18 12 1
19 19 26
20 8 3
21 9 0
22 10 22
23 12 22
24 1 14
25 6 4
26 18 7
27 10 12
28 21 23
29 19 20
30 9 15
EOF